c FILE: i160-015

c SOURCE: From steinlib

c DESCRIPTION: Steinlib instance with 160 nodes and 812 edges.

p edge 160 812
e 1 3
e 1 18
e 1 30
e 1 33
e 1 38
e 1 42
e 1 50
e 1 60
e 1 71
e 1 76
e 1 83
e 1 86
e 1 88
e 1 103
e 1 113
e 1 125
e 1 130
e 1 133
e 1 138
e 1 152
e 1 159
e 2 8
e 2 12
e 2 29
e 2 54
e 2 55
e 2 56
e 2 58
e 2 113
e 2 115
e 3 14
e 3 37
e 3 60
e 3 64
e 3 79
e 3 80
e 3 91
e 3 92
e 3 97
e 4 18
e 4 29
e 4 30
e 4 33
e 4 50
e 4 89
e 4 95
e 4 114
e 4 117
e 4 129
e 4 140
e 4 148
e 5 47
e 5 92
e 5 99
e 5 108
e 5 118
e 5 122
e 5 159
e 6 11
e 6 34
e 6 44
e 6 73
e 6 74
e 6 76
e 6 84
e 6 96
e 6 130
e 6 137
e 7 22
e 7 24
e 7 39
e 7 52
e 7 56
e 7 70
e 7 71
e 7 82
e 7 111
e 7 143
e 7 148
e 8 16
e 8 63
e 8 68
e 8 87
e 8 91
e 8 96
e 8 111
e 8 141
e 9 35
e 9 37
e 9 69
e 9 85
e 9 93
e 9 114
e 9 122
e 9 124
e 9 129
e 9 131
e 9 141
e 9 145
e 10 28
e 10 33
e 10 70
e 10 75
e 10 88
e 10 113
e 10 131
e 10 152
e 11 13
e 11 26
e 11 28
e 11 52
e 11 54
e 11 61
e 11 73
e 11 79
e 11 83
e 11 104
e 11 108
e 11 123
e 11 135
e 11 146
e 11 157
e 12 14
e 12 15
e 12 18
e 12 49
e 12 56
e 12 68
e 12 81
e 12 89
e 12 119
e 12 120
e 12 129
e 13 20
e 13 79
e 13 83
e 13 90
e 13 99
e 14 52
e 14 82
e 14 87
e 14 105
e 14 106
e 14 115
e 14 116
e 14 134
e 15 21
e 15 75
e 15 81
e 15 125
e 15 142
e 16 26
e 16 33
e 16 37
e 16 79
e 16 83
e 16 97
e 16 110
e 16 114
e 16 149
e 16 158
e 16 159
e 17 20
e 17 24
e 17 31
e 17 76
e 17 93
e 17 134
e 17 156
e 18 25
e 18 46
e 18 57
e 18 98
e 18 136
e 19 28
e 19 81
e 19 86
e 19 123
e 19 156
e 19 157
e 20 63
e 20 72
e 20 88
e 20 114
e 20 118
e 20 148
e 20 150
e 20 158
e 21 25
e 21 36
e 21 42
e 21 44
e 21 55
e 21 62
e 21 68
e 21 69
e 21 72
e 21 74
e 21 78
e 21 86
e 21 136
e 21 140
e 21 145
e 22 33
e 22 59
e 22 63
e 22 68
e 22 70
e 22 79
e 22 91
e 22 117
e 22 129
e 22 134
e 22 140
e 22 156
e 23 37
e 23 39
e 23 84
e 23 87
e 23 119
e 23 127
e 23 139
e 23 153
e 24 67
e 24 76
e 24 84
e 24 85
e 24 104
e 24 141
e 25 32
e 25 54
e 25 56
e 25 58
e 25 73
e 25 130
e 25 145
e 26 30
e 26 76
e 26 99
e 26 124
e 26 131
e 26 146
e 26 158
e 27 54
e 27 61
e 27 81
e 27 96
e 27 109
e 27 117
e 27 126
e 28 56
e 28 89
e 28 110
e 28 112
e 28 124
e 28 129
e 28 137
e 28 145
e 28 157
e 28 159
e 29 37
e 29 65
e 29 68
e 29 76
e 29 104
e 29 106
e 29 116
e 29 138
e 30 61
e 30 63
e 30 66
e 30 71
e 30 76
e 30 79
e 30 82
e 30 93
e 30 98
e 30 109
e 30 112
e 30 116
e 30 122
e 30 125
e 30 146
e 30 151
e 30 160
e 31 40
e 31 54
e 31 69
e 31 71
e 31 73
e 31 142
e 31 149
e 31 156
e 32 35
e 32 67
e 32 90
e 32 94
e 32 102
e 32 103
e 32 106
e 32 120
e 32 146
e 32 160
e 33 41
e 33 53
e 33 63
e 33 84
e 33 89
e 33 92
e 33 151
e 33 153
e 34 41
e 34 45
e 34 61
e 34 62
e 34 82
e 34 102
e 34 108
e 34 124
e 34 147
e 35 49
e 35 62
e 35 77
e 35 97
e 35 104
e 35 111
e 35 113
e 35 120
e 35 150
e 36 48
e 36 51
e 36 53
e 36 71
e 36 73
e 36 105
e 36 115
e 36 119
e 36 138
e 37 39
e 37 44
e 37 63
e 37 81
e 37 84
e 37 91
e 37 94
e 37 109
e 37 123
e 37 145
e 38 47
e 38 72
e 38 90
e 38 120
e 38 127
e 38 134
e 38 148
e 38 149
e 39 40
e 39 55
e 39 115
e 39 124
e 39 133
e 39 157
e 40 50
e 40 57
e 40 70
e 40 76
e 40 95
e 40 103
e 40 127
e 40 147
e 41 51
e 41 91
e 41 93
e 41 97
e 41 105
e 41 107
e 41 143
e 42 55
e 42 97
e 42 114
e 42 125
e 42 152
e 43 63
e 43 86
e 43 92
e 43 109
e 43 111
e 43 138
e 43 142
e 43 143
e 44 50
e 44 78
e 44 85
e 44 86
e 44 92
e 44 112
e 44 156
e 45 50
e 45 68
e 45 92
e 45 97
e 45 102
e 45 112
e 45 153
e 46 68
e 46 76
e 46 84
e 46 116
e 46 118
e 46 151
e 47 50
e 47 72
e 47 73
e 47 98
e 47 105
e 47 110
e 47 142
e 47 146
e 48 62
e 48 81
e 48 109
e 48 119
e 48 152
e 49 57
e 49 62
e 49 101
e 49 113
e 49 119
e 49 153
e 50 91
e 50 93
e 50 94
e 50 106
e 50 116
e 50 128
e 50 129
e 50 156
e 51 60
e 51 85
e 51 136
e 51 151
e 52 53
e 52 86
e 52 104
e 52 118
e 52 132
e 52 145
e 52 147
e 53 58
e 53 94
e 53 107
e 53 146
e 53 153
e 54 58
e 54 59
e 54 64
e 54 83
e 54 91
e 54 102
e 54 129
e 54 149
e 54 151
e 55 82
e 55 93
e 55 111
e 55 139
e 55 140
e 55 151
e 55 153
e 56 90
e 56 96
e 56 133
e 56 136
e 56 148
e 56 160
e 57 74
e 57 85
e 57 109
e 57 111
e 57 127
e 57 147
e 57 151
e 57 157
e 58 72
e 58 99
e 58 119
e 58 136
e 58 156
e 59 64
e 59 89
e 59 94
e 59 111
e 59 118
e 59 123
e 59 128
e 59 148
e 60 69
e 60 77
e 60 85
e 60 127
e 60 142
e 61 75
e 61 101
e 61 104
e 61 105
e 61 113
e 61 123
e 61 141
e 62 94
e 62 104
e 62 122
e 62 143
e 62 160
e 63 64
e 63 81
e 63 100
e 63 101
e 63 108
e 63 110
e 63 111
e 63 133
e 63 135
e 63 136
e 63 150
e 63 151
e 63 155
e 64 81
e 64 108
e 64 117
e 64 155
e 65 69
e 65 98
e 65 149
e 65 160
e 66 68
e 66 77
e 66 82
e 66 112
e 66 122
e 66 125
e 66 127
e 66 146
e 67 71
e 67 81
e 67 93
e 67 103
e 67 116
e 67 131
e 68 73
e 68 107
e 68 112
e 68 113
e 68 123
e 68 137
e 68 154
e 69 76
e 69 97
e 69 120
e 70 81
e 70 90
e 70 114
e 70 120
e 70 130
e 70 144
e 70 148
e 71 93
e 71 116
e 72 96
e 72 100
e 72 130
e 72 151
e 72 154
e 73 80
e 73 88
e 73 98
e 73 106
e 73 127
e 74 89
e 74 103
e 74 111
e 74 131
e 74 142
e 74 145
e 75 85
e 75 96
e 75 106
e 75 111
e 75 125
e 76 78
e 76 83
e 76 89
e 76 103
e 76 106
e 76 110
e 76 137
e 77 82
e 77 85
e 77 100
e 77 113
e 77 117
e 77 157
e 78 96
e 78 98
e 78 105
e 78 112
e 78 129
e 78 145
e 79 84
e 79 87
e 79 98
e 79 113
e 79 119
e 79 128
e 79 135
e 79 143
e 79 145
e 80 84
e 80 86
e 80 110
e 80 124
e 80 127
e 80 146
e 80 152
e 80 153
e 81 134
e 81 139
e 82 90
e 82 101
e 82 135
e 82 137
e 82 151
e 82 159
e 83 90
e 83 96
e 83 106
e 83 158
e 84 90
e 84 96
e 84 107
e 84 127
e 84 146
e 85 88
e 85 93
e 85 96
e 85 107
e 85 120
e 85 133
e 85 156
e 86 121
e 86 132
e 86 134
e 86 143
e 87 113
e 87 145
e 88 93
e 88 101
e 88 105
e 88 117
e 88 125
e 88 134
e 88 156
e 88 157
e 89 147
e 90 97
e 90 118
e 90 127
e 91 116
e 91 130
e 91 154
e 92 108
e 92 114
e 92 140
e 93 102
e 93 106
e 93 110
e 93 135
e 94 130
e 94 133
e 94 140
e 94 150
e 95 113
e 96 145
e 97 124
e 98 110
e 98 115
e 98 130
e 98 146
e 99 109
e 99 120
e 99 129
e 100 122
e 100 124
e 100 133
e 100 142
e 100 144
e 100 153
e 101 103
e 101 106
e 101 109
e 101 124
e 102 118
e 102 127
e 103 107
e 103 118
e 103 136
e 103 154
e 104 111
e 104 113
e 104 133
e 104 135
e 104 139
e 104 140
e 105 117
e 105 129
e 105 157
e 105 160
e 106 128
e 106 142
e 106 143
e 107 110
e 107 125
e 107 151
e 108 120
e 108 129
e 109 114
e 109 117
e 109 120
e 109 132
e 109 144
e 110 119
e 110 126
e 110 132
e 111 119
e 111 127
e 111 129
e 112 115
e 112 154
e 113 118
e 113 122
e 113 150
e 113 155
e 114 121
e 114 122
e 114 123
e 114 153
e 114 160
e 115 119
e 115 135
e 115 137
e 116 133
e 116 135
e 116 145
e 117 131
e 117 151
e 118 130
e 118 133
e 118 143
e 119 120
e 119 133
e 119 137
e 120 154
e 120 156
e 120 160
e 121 128
e 121 140
e 121 147
e 121 155
e 122 141
e 122 152
e 122 158
e 123 146
e 124 141
e 124 151
e 125 128
e 125 134
e 126 134
e 126 142
e 126 144
e 126 145
e 126 156
e 127 144
e 127 151
e 128 140
e 128 145
e 129 135
e 129 143
e 129 145
e 129 154
e 130 139
e 131 159
e 132 133
e 132 139
e 132 159
e 133 137
e 133 138
e 134 135
e 134 146
e 134 155
e 138 140
e 138 145
e 140 153
e 141 156
e 144 145
e 144 146
e 144 160
e 146 150
e 147 153
e 148 155
e 150 156
e 151 155
e 151 156
e 156 159
